$rem
method  pbe
basis def2-SVP
symmetry false
sym_ignore true
ecp def2-ecp
mem_total 35000
$end

$comment
this is a test run
$end
